(set-info :source |printed by MathSAT|)
(declare-fun |!{$(in_main#0)<N>}| () Int)
(declare-fun |!{$(in_main#0)<N>}.next| () Int)
(declare-fun |!{$(in_main#0)<&array>}| () Int)
(declare-fun |!{$(in_main#0)<&array>}.next| () Int)
(declare-fun |!{$(in_main#0)<k>}| () Int)
(declare-fun |!{$(in_main#0)<k>}.next| () Int)
(declare-fun |!{$(in_main#0)<k#1>}| () Int)
(declare-fun |!{$(in_main#0)<k#1>}.next| () Int)
(declare-fun |!{%memaddr}| () Int)
(declare-fun |!{%memaddr}.next| () Int)
(declare-fun |!{%mem.0}| () (Array Int Int))
(declare-fun |!{%mem.0}.next| () (Array Int Int))
(declare-fun |!{$(in_main#0)<$(in___VERIFIER_nondet_int#1)<h#<__VERIFIER_nondet_int.return>>>}| () Int)
(declare-fun |!{$(in_main#0)<$(in___VERIFIER_nondet_int#3)<h#<__VERIFIER_nondet_int.return>>>}| () Int)
(declare-fun !pc () Int)
(declare-fun !pc.next () Int)
(declare-fun |%{$(in_main#0)<k#1>}#1| () Int)
(declare-fun |%{%mem.0}#5| () (Array Int Int))
(define-fun .def_57 () Int (! !pc :next !pc.next))
(define-fun .def_60 () Bool (! (= .def_57 2) :init true))
(define-fun .def_244 () Bool (= .def_57 47))
(define-fun .def_138 () Bool (= !pc.next 141))
(define-fun .def_247 () Bool (and .def_138 .def_244))
(define-fun .def_240 () Bool (= |!{%mem.0}.next| |%{%mem.0}#5|))
(define-fun .def_237 () Bool (= |!{$(in_main#0)<k#1>}.next| 0))
(define-fun .def_10 () Int (! |!{$(in_main#0)<&array>}| :next |!{$(in_main#0)<&array>}.next|))
(define-fun .def_105 () Bool (= .def_10 |!{$(in_main#0)<&array>}.next|))
(define-fun .def_8 () Int (! |!{$(in_main#0)<N>}| :next |!{$(in_main#0)<N>}.next|))
(define-fun .def_103 () Bool (= .def_8 |!{$(in_main#0)<N>}.next|))
(define-fun .def_115 () Bool (and .def_103 .def_105))
(define-fun .def_12 () Int (! |!{$(in_main#0)<k>}| :next |!{$(in_main#0)<k>}.next|))
(define-fun .def_107 () Bool (= .def_12 |!{$(in_main#0)<k>}.next|))
(define-fun .def_116 () Bool (and .def_107 .def_115))
(define-fun .def_238 () Bool (and .def_116 .def_237))
(define-fun .def_16 () Int (! |!{%memaddr}| :next |!{%memaddr}.next|))
(define-fun .def_111 () Bool (= .def_16 |!{%memaddr}.next|))
(define-fun .def_239 () Bool (and .def_111 .def_238))
(define-fun .def_241 () Bool (and .def_239 .def_240))
(define-fun .def_18 () (Array Int Int) (! |!{%mem.0}| :next |!{%mem.0}.next|))
(define-fun .def_224 () Bool (= .def_18 |%{%mem.0}#5|))
(define-fun .def_156 () Bool (<= 0 .def_8))
(define-fun .def_154 () Bool (<= .def_8 0))
(define-fun .def_155 () Bool (not .def_154))
(define-fun .def_157 () Bool (and .def_155 .def_156))
(define-fun .def_222 () Bool (not .def_157))
(define-fun .def_225 () Bool (and .def_222 .def_224))
(define-fun .def_158 () (Array Int Int) (store .def_18 .def_10 0))
(define-fun .def_217 () Bool (= .def_158 |%{%mem.0}#5|))
(define-fun .def_162 () Bool (<= 1 .def_8))
(define-fun .def_159 () Bool (<= .def_8 1))
(define-fun .def_160 () Bool (not .def_159))
(define-fun .def_161 () Bool (and .def_155 .def_160))
(define-fun .def_163 () Bool (and .def_161 .def_162))
(define-fun .def_214 () Bool (not .def_163))
(define-fun .def_218 () Bool (and .def_214 .def_217))
(define-fun .def_166 () Int (+ .def_8 .def_10))
(define-fun .def_167 () Int (+ .def_166 (- 1)))
(define-fun .def_168 () (Array Int Int) (store .def_158 .def_167 0))
(define-fun .def_208 () Bool (= .def_168 |%{%mem.0}#5|))
(define-fun .def_169 () Bool (<= 2 .def_8))
(define-fun .def_170 () Bool (and .def_160 .def_169))
(define-fun .def_204 () Bool (not .def_170))
(define-fun .def_209 () Bool (and .def_204 .def_208))
(define-fun .def_182 () Int (+ .def_166 (- 2)))
(define-fun .def_171 () Int (+ .def_10 1))
(define-fun .def_172 () (Array Int Int) (store .def_168 .def_171 0))
(define-fun .def_183 () (Array Int Int) (store .def_172 .def_182 0))
(define-fun .def_196 () Bool (= .def_183 |%{%mem.0}#5|))
(define-fun .def_177 () Bool (<= 3 .def_8))
(define-fun .def_173 () Bool (<= .def_8 2))
(define-fun .def_174 () Bool (not .def_173))
(define-fun .def_175 () Bool (and .def_160 .def_174))
(define-fun .def_178 () Bool (and .def_175 .def_177))
(define-fun .def_198 () Bool (and .def_178 .def_196))
(define-fun .def_195 () Bool (= .def_172 |%{%mem.0}#5|))
(define-fun .def_184 () Bool (not .def_178))
(define-fun .def_197 () Bool (and .def_184 .def_195))
(define-fun .def_199 () Bool (or .def_197 .def_198))
(define-fun .def_200 () Bool (and .def_170 .def_199))
(define-fun .def_210 () Bool (or .def_200 .def_209))
(define-fun .def_211 () Bool (and .def_163 .def_210))
(define-fun .def_219 () Bool (or .def_211 .def_218))
(define-fun .def_220 () Bool (and .def_157 .def_219))
(define-fun .def_226 () Bool (or .def_220 .def_225))
(define-fun .def_242 () Bool (and .def_226 .def_241))
(define-fun .def_149 () Bool (<= .def_8 .def_12))
(define-fun .def_243 () Bool (and .def_149 .def_242))
(define-fun .def_248 () Bool (and .def_243 .def_247))
(define-fun .def_89 () Bool (= !pc.next 47))
(define-fun .def_245 () Bool (and .def_89 .def_244))
(define-fun .def_151 () Int (+ .def_10 .def_12))
(define-fun .def_152 () (Array Int Int) (store .def_18 .def_151 |!{$(in_main#0)<$(in___VERIFIER_nondet_int#3)<h#<__VERIFIER_nondet_int.return>>>}|))
(define-fun .def_234 () Bool (= |!{%mem.0}.next| .def_152))
(define-fun .def_228 () Int (* (- 1) |!{$(in_main#0)<k>}.next|))
(define-fun .def_229 () Int (+ .def_12 .def_228))
(define-fun .def_230 () Bool (= .def_229 (- 1)))
(define-fun .def_231 () Bool (and .def_115 .def_230))
(define-fun .def_14 () Int (! |!{$(in_main#0)<k#1>}| :next |!{$(in_main#0)<k#1>}.next|))
(define-fun .def_109 () Bool (= .def_14 |!{$(in_main#0)<k#1>}.next|))
(define-fun .def_232 () Bool (and .def_109 .def_231))
(define-fun .def_233 () Bool (and .def_111 .def_232))
(define-fun .def_235 () Bool (and .def_233 .def_234))
(define-fun .def_150 () Bool (not .def_149))
(define-fun .def_236 () Bool (and .def_150 .def_235))
(define-fun .def_246 () Bool (and .def_236 .def_245))
(define-fun .def_249 () Bool (or .def_246 .def_248))
(define-fun .def_142 () Bool (= !pc.next 0))
(define-fun .def_133 () Bool (= .def_57 141))
(define-fun .def_143 () Bool (and .def_133 .def_142))
(define-fun .def_92 () Bool (<= .def_8 .def_14))
(define-fun .def_126 () Bool (and .def_92 .def_103))
(define-fun .def_127 () Bool (and .def_105 .def_126))
(define-fun .def_128 () Bool (and .def_107 .def_127))
(define-fun .def_129 () Bool (and .def_109 .def_128))
(define-fun .def_130 () Bool (and .def_111 .def_129))
(define-fun .def_85 () Bool (= .def_18 |!{%mem.0}.next|))
(define-fun .def_131 () Bool (and .def_85 .def_130))
(define-fun .def_144 () Bool (and .def_131 .def_143))
(define-fun .def_139 () Bool (and .def_133 .def_138))
(define-fun .def_118 () Int (* (- 1) |!{$(in_main#0)<k#1>}.next|))
(define-fun .def_119 () Int (+ .def_14 .def_118))
(define-fun .def_120 () Bool (= .def_119 (- 1)))
(define-fun .def_121 () Bool (and .def_116 .def_120))
(define-fun .def_122 () Bool (and .def_111 .def_121))
(define-fun .def_123 () Bool (and .def_85 .def_122))
(define-fun .def_94 () Int (+ .def_10 .def_14))
(define-fun .def_95 () Int (select .def_18 .def_94))
(define-fun .def_96 () Bool (= .def_95 0))
(define-fun .def_97 () Int (ite .def_96 1 0))
(define-fun .def_98 () Bool (= .def_97 0))
(define-fun .def_99 () Bool (not .def_98))
(define-fun .def_124 () Bool (and .def_99 .def_123))
(define-fun .def_93 () Bool (not .def_92))
(define-fun .def_125 () Bool (and .def_93 .def_124))
(define-fun .def_140 () Bool (and .def_125 .def_139))
(define-fun .def_135 () Bool (= !pc.next 161))
(define-fun .def_136 () Bool (and .def_133 .def_135))
(define-fun .def_104 () Bool (and .def_98 .def_103))
(define-fun .def_106 () Bool (and .def_104 .def_105))
(define-fun .def_108 () Bool (and .def_106 .def_107))
(define-fun .def_110 () Bool (and .def_108 .def_109))
(define-fun .def_112 () Bool (and .def_110 .def_111))
(define-fun .def_113 () Bool (and .def_85 .def_112))
(define-fun .def_114 () Bool (and .def_93 .def_113))
(define-fun .def_137 () Bool (and .def_114 .def_136))
(define-fun .def_141 () Bool (or .def_137 .def_140))
(define-fun .def_145 () Bool (or .def_141 .def_144))
(define-fun .def_90 () Bool (and .def_60 .def_89))
(define-fun .def_83 () Bool (= |!{%memaddr}.next| 2))
(define-fun .def_81 () Bool (= |!{$(in_main#0)<k#1>}.next| |%{$(in_main#0)<k#1>}#1|))
(define-fun .def_79 () Bool (= |!{$(in_main#0)<k>}.next| 0))
(define-fun .def_77 () Bool (= |!{$(in_main#0)<&array>}.next| 1))
(define-fun .def_76 () Bool (= |!{$(in_main#0)<N>}.next| |!{$(in_main#0)<$(in___VERIFIER_nondet_int#1)<h#<__VERIFIER_nondet_int.return>>>}|))
(define-fun .def_78 () Bool (and .def_76 .def_77))
(define-fun .def_80 () Bool (and .def_78 .def_79))
(define-fun .def_82 () Bool (and .def_80 .def_81))
(define-fun .def_84 () Bool (and .def_82 .def_83))
(define-fun .def_86 () Bool (and .def_84 .def_85))
(define-fun .def_71 () Bool (<= |!{$(in_main#0)<$(in___VERIFIER_nondet_int#1)<h#<__VERIFIER_nondet_int.return>>>}| 0))
(define-fun .def_72 () Bool (not .def_71))
(define-fun .def_73 () Int (ite .def_72 1 0))
(define-fun .def_74 () Bool (= .def_73 0))
(define-fun .def_75 () Bool (not .def_74))
(define-fun .def_87 () Bool (and .def_75 .def_86))
(define-fun .def_91 () Bool (and .def_87 .def_90))
(define-fun .def_146 () Bool (or .def_91 .def_145))
(define-fun .def_250 () Bool (! (or .def_146 .def_249) :trans true))
(define-fun .def_147 () Bool (= .def_57 161))
(define-fun .def_251 () Bool (! (not .def_147) :invar-property 0 :invar-property-name ||))
(assert true)
